40
1 0 5
2 0 15
2 1 18
3 0 2
3 1 20
3 2 1
4 0 8
4 1 1
4 2 14
4 3 9
5 0 7
5 1 12
5 2 19
5 3 7
5 4 11
6 0 4
6 1 3
6 2 7
6 3 10
6 4 7
6 5 15
7 0 14
7 1 7
7 2 7
7 3 9
7 4 9
7 5 1
7 6 13
8 0 7
8 1 1
8 2 5
8 3 1
8 4 6
8 5 3
8 6 2
8 7 19
9 0 16
9 1 12
9 2 2
9 3 3
9 4 8
9 5 14
9 6 5
9 7 17
9 8 1
10 0 7
10 1 17
10 2 11
10 3 17
10 4 6
10 5 14
10 6 16
10 7 18
10 8 17
10 9 18
11 0 20
11 1 2
11 2 1
11 3 5
11 4 10
11 5 1
11 6 6
11 7 2
11 8 2
11 9 15
11 10 2
12 0 7
12 1 14
12 2 18
12 3 16
12 4 11
12 5 14
12 6 17
12 7 14
12 8 12
12 9 6
12 10 13
12 11 12
13 0 10
13 1 16
13 2 10
13 3 13
13 4 16
13 5 12
13 6 1
13 7 13
13 8 18
13 9 1
13 10 15
13 11 7
13 12 3
14 0 13
14 1 16
14 2 9
14 3 10
14 4 12
14 5 9
14 6 11
14 7 1
14 8 18
14 9 4
14 10 13
14 11 5
14 12 6
14 13 16
15 0 10
15 1 8
15 2 3
15 3 9
15 4 1
15 5 6
15 6 10
15 7 17
15 8 19
15 9 13
15 10 10
15 11 10
15 12 7
15 13 6
15 14 8
16 0 10
16 1 6
16 2 5
16 3 11
16 4 9
16 5 12
16 6 15
16 7 11
16 8 12
16 9 16
16 10 11
16 11 1
16 12 5
16 13 9
16 14 15
16 15 1
17 0 6
17 1 2
17 2 13
17 3 9
17 4 5
17 5 10
17 6 9
17 7 3
17 8 18
17 9 7
17 10 13
17 11 17
17 12 20
17 13 3
17 14 5
17 15 6
17 16 16
18 0 19
18 1 16
18 2 19
18 3 14
18 4 13
18 5 5
18 6 13
18 7 10
18 8 19
18 9 14
18 10 13
18 11 1
18 12 12
18 13 2
18 14 2
18 15 11
18 16 16
18 17 7
19 0 2
19 1 17
19 2 11
19 3 14
19 4 9
19 5 16
19 6 20
19 7 1
19 8 18
19 9 18
19 10 3
19 11 20
19 12 13
19 13 20
19 14 2
19 15 5
19 16 11
19 17 8
19 18 15
20 0 4
20 1 15
20 2 12
20 3 6
20 4 2
20 5 20
20 6 4
20 7 17
20 8 1
20 9 1
20 10 14
20 11 15
20 12 7
20 13 13
20 14 1
20 15 9
20 16 20
20 17 2
20 18 15
20 19 9
21 0 9
21 1 3
21 2 18
21 3 6
21 4 19
21 5 10
21 6 14
21 7 7
21 8 10
21 9 19
21 10 5
21 11 15
21 12 13
21 13 20
21 14 6
21 15 14
21 16 18
21 17 6
21 18 11
21 19 14
21 20 16
22 0 6
22 1 2
22 2 7
22 3 2
22 4 9
22 5 8
22 6 6
22 7 13
22 8 16
22 9 17
22 10 20
22 11 5
22 12 20
22 13 20
22 14 6
22 15 8
22 16 9
22 17 5
22 18 17
22 19 10
22 20 10
22 21 14
23 0 10
23 1 6
23 2 12
23 3 19
23 4 2
23 5 12
23 6 5
23 7 4
23 8 17
23 9 19
23 10 9
23 11 15
23 12 10
23 13 18
23 14 1
23 15 3
23 16 9
23 17 20
23 18 18
23 19 2
23 20 4
23 21 15
23 22 16
24 0 9
24 1 8
24 2 12
24 3 1
24 4 19
24 5 10
24 6 8
24 7 12
24 8 18
24 9 9
24 10 9
24 11 19
24 12 13
24 13 14
24 14 1
24 15 7
24 16 11
24 17 10
24 18 11
24 19 16
24 20 11
24 21 3
24 22 10
24 23 17
25 0 8
25 1 17
25 2 9
25 3 15
25 4 5
25 5 4
25 6 3
25 7 11
25 8 13
25 9 9
25 10 9
25 11 3
25 12 14
25 13 8
25 14 8
25 15 16
25 16 12
25 17 17
25 18 17
25 19 3
25 20 6
25 21 14
25 22 7
25 23 9
25 24 19
26 0 19
26 1 15
26 2 13
26 3 2
26 4 14
26 5 2
26 6 6
26 7 11
26 8 14
26 9 9
26 10 2
26 11 15
26 12 3
26 13 3
26 14 3
26 15 19
26 16 14
26 17 12
26 18 8
26 19 5
26 20 6
26 21 9
26 22 14
26 23 1
26 24 5
26 25 15
27 0 8
27 1 5
27 2 7
27 3 15
27 4 17
27 5 15
27 6 16
27 7 17
27 8 16
27 9 10
27 10 7
27 11 7
27 12 5
27 13 14
27 14 12
27 15 5
27 16 9
27 17 10
27 18 14
27 19 4
27 20 18
27 21 15
27 22 16
27 23 6
27 24 11
27 25 14
27 26 18
28 0 10
28 1 19
28 2 20
28 3 19
28 4 13
28 5 9
28 6 12
28 7 12
28 8 11
28 9 3
28 10 6
28 11 10
28 12 5
28 13 16
28 14 10
28 15 10
28 16 3
28 17 12
28 18 2
28 19 1
28 20 17
28 21 12
28 22 1
28 23 3
28 24 5
28 25 15
28 26 3
28 27 11
29 0 6
29 1 18
29 2 14
29 3 9
29 4 3
29 5 19
29 6 7
29 7 6
29 8 7
29 9 18
29 10 15
29 11 10
29 12 19
29 13 3
29 14 12
29 15 15
29 16 5
29 17 13
29 18 2
29 19 3
29 20 10
29 21 9
29 22 9
29 23 17
29 24 19
29 25 18
29 26 5
29 27 4
29 28 11
30 0 20
30 1 2
30 2 2
30 3 13
30 4 16
30 5 5
30 6 18
30 7 14
30 8 18
30 9 8
30 10 5
30 11 13
30 12 15
30 13 8
30 14 7
30 15 3
30 16 15
30 17 8
30 18 15
30 19 1
30 20 17
30 21 15
30 22 9
30 23 13
30 24 13
30 25 10
30 26 13
30 27 16
30 28 14
30 29 4
31 0 3
31 1 16
31 2 7
31 3 5
31 4 8
31 5 17
31 6 18
31 7 13
31 8 11
31 9 17
31 10 13
31 11 10
31 12 10
31 13 9
31 14 13
31 15 13
31 16 11
31 17 1
31 18 20
31 19 3
31 20 16
31 21 10
31 22 1
31 23 1
31 24 19
31 25 14
31 26 5
31 27 3
31 28 20
31 29 3
31 30 17
32 0 5
32 1 7
32 2 17
32 3 11
32 4 14
32 5 14
32 6 11
32 7 13
32 8 6
32 9 6
32 10 19
32 11 15
32 12 1
32 13 5
32 14 13
32 15 7
32 16 12
32 17 9
32 18 2
32 19 14
32 20 13
32 21 13
32 22 6
32 23 7
32 24 16
32 25 19
32 26 15
32 27 15
32 28 6
32 29 4
32 30 4
32 31 20
33 0 18
33 1 10
33 2 14
33 3 16
33 4 20
33 5 16
33 6 10
33 7 14
33 8 15
33 9 2
33 10 12
33 11 2
33 12 7
33 13 7
33 14 18
33 15 5
33 16 9
33 17 7
33 18 11
33 19 13
33 20 6
33 21 17
33 22 10
33 23 15
33 24 13
33 25 4
33 26 13
33 27 13
33 28 15
33 29 6
33 30 7
33 31 20
33 32 12
34 0 7
34 1 7
34 2 18
34 3 5
34 4 10
34 5 8
34 6 6
34 7 9
34 8 9
34 9 12
34 10 1
34 11 12
34 12 15
34 13 12
34 14 13
34 15 9
34 16 9
34 17 20
34 18 5
34 19 14
34 20 2
34 21 15
34 22 12
34 23 9
34 24 18
34 25 1
34 26 14
34 27 20
34 28 15
34 29 5
34 30 9
34 31 14
34 32 15
34 33 17
35 0 2
35 1 13
35 2 4
35 3 2
35 4 12
35 5 18
35 6 11
35 7 20
35 8 3
35 9 15
35 10 1
35 11 17
35 12 3
35 13 12
35 14 8
35 15 10
35 16 13
35 17 14
35 18 18
35 19 3
35 20 18
35 21 14
35 22 10
35 23 1
35 24 11
35 25 8
35 26 17
35 27 13
35 28 17
35 29 8
35 30 6
35 31 18
35 32 1
35 33 13
35 34 20
36 0 2
36 1 7
36 2 6
36 3 20
36 4 19
36 5 8
36 6 9
36 7 14
36 8 7
36 9 2
36 10 15
36 11 16
36 12 8
36 13 11
36 14 7
36 15 14
36 16 20
36 17 15
36 18 15
36 19 17
36 20 10
36 21 17
36 22 18
36 23 18
36 24 8
36 25 6
36 26 13
36 27 14
36 28 4
36 29 10
36 30 17
36 31 6
36 32 13
36 33 18
36 34 9
36 35 1
37 0 12
37 1 13
37 2 17
37 3 12
37 4 4
37 5 3
37 6 8
37 7 10
37 8 4
37 9 2
37 10 14
37 11 9
37 12 14
37 13 15
37 14 11
37 15 14
37 16 11
37 17 18
37 18 16
37 19 16
37 20 2
37 21 15
37 22 20
37 23 1
37 24 18
37 25 12
37 26 15
37 27 4
37 28 16
37 29 19
37 30 20
37 31 1
37 32 16
37 33 19
37 34 13
37 35 6
37 36 18
38 0 8
38 1 13
38 2 1
38 3 12
38 4 14
38 5 15
38 6 18
38 7 20
38 8 10
38 9 14
38 10 1
38 11 13
38 12 1
38 13 2
38 14 11
38 15 7
38 16 6
38 17 11
38 18 9
38 19 17
38 20 6
38 21 16
38 22 16
38 23 19
38 24 15
38 25 19
38 26 16
38 27 8
38 28 2
38 29 16
38 30 11
38 31 5
38 32 18
38 33 2
38 34 2
38 35 5
38 36 7
38 37 8
39 0 4
39 1 9
39 2 16
39 3 3
39 4 12
39 5 13
39 6 17
39 7 19
39 8 6
39 9 8
39 10 17
39 11 19
39 12 3
39 13 7
39 14 18
39 15 6
39 16 15
39 17 3
39 18 14
39 19 15
39 20 20
39 21 18
39 22 18
39 23 14
39 24 16
39 25 5
39 26 3
39 27 15
39 28 16
39 29 16
39 30 16
39 31 5
39 32 1
39 33 13
39 34 7
39 35 7
39 36 5
39 37 9
39 38 15
